32 4
12 13 4 12
0 0 0 0 0 3 2 3 4
8 4 0 0 0 3 6 11 15
4 10 0 0 0 3 7 8 13
6 0 0 0 3 3 5 9 10
3 3 0 0 0 1 20
8 0 0 0 8 1 30
5 4 0 0 0 1 27
9 0 1 0 0 3 12 19 27
2 6 0 0 0 1 14
7 0 0 0 1 2 16 25
9 0 5 0 0 2 20 26
2 0 7 0 0 1 14
6 4 0 0 0 2 17 18
3 0 8 0 0 1 17
9 3 0 0 0 1 25
10 0 0 0 5 2 21 22
6 0 0 0 8 1 22
5 0 0 0 7 2 20 22
3 0 1 0 0 2 24 29
7 0 10 0 0 2 23 25
2 0 0 0 6 1 28
7 2 0 0 0 1 23
2 3 0 0 0 1 24
3 0 9 0 0 1 30
3 4 0 0 0 1 30
7 0 0 4 0 1 31
8 0 0 0 7 1 28
3 0 8 0 0 1 31
7 0 7 0 0 1 32
2 0 7 0 0 1 32
2 0 0 2 0 1 32
0 0 0 0 0 0
